60

  0    1    2    3    1    2    3    4    2    3    4    5    3    4    5    6    4    5    6    7    5    6    7    8    6    7    8    9    7    8    9   10    8    9   10   11    9   10   11   12   10   11   12   13   11   12   13   14   12   13   14   15   13   14   15   16   14   15   16   17  
  1    0    1    2    2    1    2    3    3    2    3    4    4    3    4    5    5    4    5    6    6    5    6    7    7    6    7    8    8    7    8    9    9    8    9   10   10    9   10   11   11   10   11   12   12   11   12   13   13   12   13   14   14   13   14   15   15   14   15   16  
  2    1    0    1    3    2    1    2    4    3    2    3    5    4    3    4    6    5    4    5    7    6    5    6    8    7    6    7    9    8    7    8   10    9    8    9   11   10    9   10   12   11   10   11   13   12   11   12   14   13   12   13   15   14   13   14   16   15   14   15  
  3    2    1    0    4    3    2    1    5    4    3    2    6    5    4    3    7    6    5    4    8    7    6    5    9    8    7    6   10    9    8    7   11   10    9    8   12   11   10    9   13   12   11   10   14   13   12   11   15   14   13   12   16   15   14   13   17   16   15   14  
  1    2    3    4    0    1    2    3    1    2    3    4    2    3    4    5    3    4    5    6    4    5    6    7    5    6    7    8    6    7    8    9    7    8    9   10    8    9   10   11    9   10   11   12   10   11   12   13   11   12   13   14   12   13   14   15   13   14   15   16  
  2    1    2    3    1    0    1    2    2    1    2    3    3    2    3    4    4    3    4    5    5    4    5    6    6    5    6    7    7    6    7    8    8    7    8    9    9    8    9   10   10    9   10   11   11   10   11   12   12   11   12   13   13   12   13   14   14   13   14   15  
  3    2    1    2    2    1    0    1    3    2    1    2    4    3    2    3    5    4    3    4    6    5    4    5    7    6    5    6    8    7    6    7    9    8    7    8   10    9    8    9   11   10    9   10   12   11   10   11   13   12   11   12   14   13   12   13   15   14   13   14  
  4    3    2    1    3    2    1    0    4    3    2    1    5    4    3    2    6    5    4    3    7    6    5    4    8    7    6    5    9    8    7    6   10    9    8    7   11   10    9    8   12   11   10    9   13   12   11   10   14   13   12   11   15   14   13   12   16   15   14   13  
  2    3    4    5    1    2    3    4    0    1    2    3    1    2    3    4    2    3    4    5    3    4    5    6    4    5    6    7    5    6    7    8    6    7    8    9    7    8    9   10    8    9   10   11    9   10   11   12   10   11   12   13   11   12   13   14   12   13   14   15  
  3    2    3    4    2    1    2    3    1    0    1    2    2    1    2    3    3    2    3    4    4    3    4    5    5    4    5    6    6    5    6    7    7    6    7    8    8    7    8    9    9    8    9   10   10    9   10   11   11   10   11   12   12   11   12   13   13   12   13   14  
  4    3    2    3    3    2    1    2    2    1    0    1    3    2    1    2    4    3    2    3    5    4    3    4    6    5    4    5    7    6    5    6    8    7    6    7    9    8    7    8   10    9    8    9   11   10    9   10   12   11   10   11   13   12   11   12   14   13   12   13  
  5    4    3    2    4    3    2    1    3    2    1    0    4    3    2    1    5    4    3    2    6    5    4    3    7    6    5    4    8    7    6    5    9    8    7    6   10    9    8    7   11   10    9    8   12   11   10    9   13   12   11   10   14   13   12   11   15   14   13   12  
  3    4    5    6    2    3    4    5    1    2    3    4    0    1    2    3    1    2    3    4    2    3    4    5    3    4    5    6    4    5    6    7    5    6    7    8    6    7    8    9    7    8    9   10    8    9   10   11    9   10   11   12   10   11   12   13   11   12   13   14  
  4    3    4    5    3    2    3    4    2    1    2    3    1    0    1    2    2    1    2    3    3    2    3    4    4    3    4    5    5    4    5    6    6    5    6    7    7    6    7    8    8    7    8    9    9    8    9   10   10    9   10   11   11   10   11   12   12   11   12   13  
  5    4    3    4    4    3    2    3    3    2    1    2    2    1    0    1    3    2    1    2    4    3    2    3    5    4    3    4    6    5    4    5    7    6    5    6    8    7    6    7    9    8    7    8   10    9    8    9   11   10    9   10   12   11   10   11   13   12   11   12  
  6    5    4    3    5    4    3    2    4    3    2    1    3    2    1    0    4    3    2    1    5    4    3    2    6    5    4    3    7    6    5    4    8    7    6    5    9    8    7    6   10    9    8    7   11   10    9    8   12   11   10    9   13   12   11   10   14   13   12   11  
  4    5    6    7    3    4    5    6    2    3    4    5    1    2    3    4    0    1    2    3    1    2    3    4    2    3    4    5    3    4    5    6    4    5    6    7    5    6    7    8    6    7    8    9    7    8    9   10    8    9   10   11    9   10   11   12   10   11   12   13  
  5    4    5    6    4    3    4    5    3    2    3    4    2    1    2    3    1    0    1    2    2    1    2    3    3    2    3    4    4    3    4    5    5    4    5    6    6    5    6    7    7    6    7    8    8    7    8    9    9    8    9   10   10    9   10   11   11   10   11   12  
  6    5    4    5    5    4    3    4    4    3    2    3    3    2    1    2    2    1    0    1    3    2    1    2    4    3    2    3    5    4    3    4    6    5    4    5    7    6    5    6    8    7    6    7    9    8    7    8   10    9    8    9   11   10    9   10   12   11   10   11  
  7    6    5    4    6    5    4    3    5    4    3    2    4    3    2    1    3    2    1    0    4    3    2    1    5    4    3    2    6    5    4    3    7    6    5    4    8    7    6    5    9    8    7    6   10    9    8    7   11   10    9    8   12   11   10    9   13   12   11   10  
  5    6    7    8    4    5    6    7    3    4    5    6    2    3    4    5    1    2    3    4    0    1    2    3    1    2    3    4    2    3    4    5    3    4    5    6    4    5    6    7    5    6    7    8    6    7    8    9    7    8    9   10    8    9   10   11    9   10   11   12  
  6    5    6    7    5    4    5    6    4    3    4    5    3    2    3    4    2    1    2    3    1    0    1    2    2    1    2    3    3    2    3    4    4    3    4    5    5    4    5    6    6    5    6    7    7    6    7    8    8    7    8    9    9    8    9   10   10    9   10   11  
  7    6    5    6    6    5    4    5    5    4    3    4    4    3    2    3    3    2    1    2    2    1    0    1    3    2    1    2    4    3    2    3    5    4    3    4    6    5    4    5    7    6    5    6    8    7    6    7    9    8    7    8   10    9    8    9   11   10    9   10  
  8    7    6    5    7    6    5    4    6    5    4    3    5    4    3    2    4    3    2    1    3    2    1    0    4    3    2    1    5    4    3    2    6    5    4    3    7    6    5    4    8    7    6    5    9    8    7    6   10    9    8    7   11   10    9    8   12   11   10    9  
  6    7    8    9    5    6    7    8    4    5    6    7    3    4    5    6    2    3    4    5    1    2    3    4    0    1    2    3    1    2    3    4    2    3    4    5    3    4    5    6    4    5    6    7    5    6    7    8    6    7    8    9    7    8    9   10    8    9   10   11  
  7    6    7    8    6    5    6    7    5    4    5    6    4    3    4    5    3    2    3    4    2    1    2    3    1    0    1    2    2    1    2    3    3    2    3    4    4    3    4    5    5    4    5    6    6    5    6    7    7    6    7    8    8    7    8    9    9    8    9   10  
  8    7    6    7    7    6    5    6    6    5    4    5    5    4    3    4    4    3    2    3    3    2    1    2    2    1    0    1    3    2    1    2    4    3    2    3    5    4    3    4    6    5    4    5    7    6    5    6    8    7    6    7    9    8    7    8   10    9    8    9  
  9    8    7    6    8    7    6    5    7    6    5    4    6    5    4    3    5    4    3    2    4    3    2    1    3    2    1    0    4    3    2    1    5    4    3    2    6    5    4    3    7    6    5    4    8    7    6    5    9    8    7    6   10    9    8    7   11   10    9    8  
  7    8    9   10    6    7    8    9    5    6    7    8    4    5    6    7    3    4    5    6    2    3    4    5    1    2    3    4    0    1    2    3    1    2    3    4    2    3    4    5    3    4    5    6    4    5    6    7    5    6    7    8    6    7    8    9    7    8    9   10  
  8    7    8    9    7    6    7    8    6    5    6    7    5    4    5    6    4    3    4    5    3    2    3    4    2    1    2    3    1    0    1    2    2    1    2    3    3    2    3    4    4    3    4    5    5    4    5    6    6    5    6    7    7    6    7    8    8    7    8    9  
  9    8    7    8    8    7    6    7    7    6    5    6    6    5    4    5    5    4    3    4    4    3    2    3    3    2    1    2    2    1    0    1    3    2    1    2    4    3    2    3    5    4    3    4    6    5    4    5    7    6    5    6    8    7    6    7    9    8    7    8  
 10    9    8    7    9    8    7    6    8    7    6    5    7    6    5    4    6    5    4    3    5    4    3    2    4    3    2    1    3    2    1    0    4    3    2    1    5    4    3    2    6    5    4    3    7    6    5    4    8    7    6    5    9    8    7    6   10    9    8    7  
  8    9   10   11    7    8    9   10    6    7    8    9    5    6    7    8    4    5    6    7    3    4    5    6    2    3    4    5    1    2    3    4    0    1    2    3    1    2    3    4    2    3    4    5    3    4    5    6    4    5    6    7    5    6    7    8    6    7    8    9  
  9    8    9   10    8    7    8    9    7    6    7    8    6    5    6    7    5    4    5    6    4    3    4    5    3    2    3    4    2    1    2    3    1    0    1    2    2    1    2    3    3    2    3    4    4    3    4    5    5    4    5    6    6    5    6    7    7    6    7    8  
 10    9    8    9    9    8    7    8    8    7    6    7    7    6    5    6    6    5    4    5    5    4    3    4    4    3    2    3    3    2    1    2    2    1    0    1    3    2    1    2    4    3    2    3    5    4    3    4    6    5    4    5    7    6    5    6    8    7    6    7  
 11   10    9    8   10    9    8    7    9    8    7    6    8    7    6    5    7    6    5    4    6    5    4    3    5    4    3    2    4    3    2    1    3    2    1    0    4    3    2    1    5    4    3    2    6    5    4    3    7    6    5    4    8    7    6    5    9    8    7    6  
  9   10   11   12    8    9   10   11    7    8    9   10    6    7    8    9    5    6    7    8    4    5    6    7    3    4    5    6    2    3    4    5    1    2    3    4    0    1    2    3    1    2    3    4    2    3    4    5    3    4    5    6    4    5    6    7    5    6    7    8  
 10    9   10   11    9    8    9   10    8    7    8    9    7    6    7    8    6    5    6    7    5    4    5    6    4    3    4    5    3    2    3    4    2    1    2    3    1    0    1    2    2    1    2    3    3    2    3    4    4    3    4    5    5    4    5    6    6    5    6    7  
 11   10    9   10   10    9    8    9    9    8    7    8    8    7    6    7    7    6    5    6    6    5    4    5    5    4    3    4    4    3    2    3    3    2    1    2    2    1    0    1    3    2    1    2    4    3    2    3    5    4    3    4    6    5    4    5    7    6    5    6  
 12   11   10    9   11   10    9    8   10    9    8    7    9    8    7    6    8    7    6    5    7    6    5    4    6    5    4    3    5    4    3    2    4    3    2    1    3    2    1    0    4    3    2    1    5    4    3    2    6    5    4    3    7    6    5    4    8    7    6    5  
 10   11   12   13    9   10   11   12    8    9   10   11    7    8    9   10    6    7    8    9    5    6    7    8    4    5    6    7    3    4    5    6    2    3    4    5    1    2    3    4    0    1    2    3    1    2    3    4    2    3    4    5    3    4    5    6    4    5    6    7  
 11   10   11   12   10    9   10   11    9    8    9   10    8    7    8    9    7    6    7    8    6    5    6    7    5    4    5    6    4    3    4    5    3    2    3    4    2    1    2    3    1    0    1    2    2    1    2    3    3    2    3    4    4    3    4    5    5    4    5    6  
 12   11   10   11   11   10    9   10   10    9    8    9    9    8    7    8    8    7    6    7    7    6    5    6    6    5    4    5    5    4    3    4    4    3    2    3    3    2    1    2    2    1    0    1    3    2    1    2    4    3    2    3    5    4    3    4    6    5    4    5  
 13   12   11   10   12   11   10    9   11   10    9    8   10    9    8    7    9    8    7    6    8    7    6    5    7    6    5    4    6    5    4    3    5    4    3    2    4    3    2    1    3    2    1    0    4    3    2    1    5    4    3    2    6    5    4    3    7    6    5    4  
 11   12   13   14   10   11   12   13    9   10   11   12    8    9   10   11    7    8    9   10    6    7    8    9    5    6    7    8    4    5    6    7    3    4    5    6    2    3    4    5    1    2    3    4    0    1    2    3    1    2    3    4    2    3    4    5    3    4    5    6  
 12   11   12   13   11   10   11   12   10    9   10   11    9    8    9   10    8    7    8    9    7    6    7    8    6    5    6    7    5    4    5    6    4    3    4    5    3    2    3    4    2    1    2    3    1    0    1    2    2    1    2    3    3    2    3    4    4    3    4    5  
 13   12   11   12   12   11   10   11   11   10    9   10   10    9    8    9    9    8    7    8    8    7    6    7    7    6    5    6    6    5    4    5    5    4    3    4    4    3    2    3    3    2    1    2    2    1    0    1    3    2    1    2    4    3    2    3    5    4    3    4  
 14   13   12   11   13   12   11   10   12   11   10    9   11   10    9    8   10    9    8    7    9    8    7    6    8    7    6    5    7    6    5    4    6    5    4    3    5    4    3    2    4    3    2    1    3    2    1    0    4    3    2    1    5    4    3    2    6    5    4    3  
 12   13   14   15   11   12   13   14   10   11   12   13    9   10   11   12    8    9   10   11    7    8    9   10    6    7    8    9    5    6    7    8    4    5    6    7    3    4    5    6    2    3    4    5    1    2    3    4    0    1    2    3    1    2    3    4    2    3    4    5  
 13   12   13   14   12   11   12   13   11   10   11   12   10    9   10   11    9    8    9   10    8    7    8    9    7    6    7    8    6    5    6    7    5    4    5    6    4    3    4    5    3    2    3    4    2    1    2    3    1    0    1    2    2    1    2    3    3    2    3    4  
 14   13   12   13   13   12   11   12   12   11   10   11   11   10    9   10   10    9    8    9    9    8    7    8    8    7    6    7    7    6    5    6    6    5    4    5    5    4    3    4    4    3    2    3    3    2    1    2    2    1    0    1    3    2    1    2    4    3    2    3  
 15   14   13   12   14   13   12   11   13   12   11   10   12   11   10    9   11   10    9    8   10    9    8    7    9    8    7    6    8    7    6    5    7    6    5    4    6    5    4    3    5    4    3    2    4    3    2    1    3    2    1    0    4    3    2    1    5    4    3    2  
 13   14   15   16   12   13   14   15   11   12   13   14   10   11   12   13    9   10   11   12    8    9   10   11    7    8    9   10    6    7    8    9    5    6    7    8    4    5    6    7    3    4    5    6    2    3    4    5    1    2    3    4    0    1    2    3    1    2    3    4  
 14   13   14   15   13   12   13   14   12   11   12   13   11   10   11   12   10    9   10   11    9    8    9   10    8    7    8    9    7    6    7    8    6    5    6    7    5    4    5    6    4    3    4    5    3    2    3    4    2    1    2    3    1    0    1    2    2    1    2    3  
 15   14   13   14   14   13   12   13   13   12   11   12   12   11   10   11   11   10    9   10   10    9    8    9    9    8    7    8    8    7    6    7    7    6    5    6    6    5    4    5    5    4    3    4    4    3    2    3    3    2    1    2    2    1    0    1    3    2    1    2  
 16   15   14   13   15   14   13   12   14   13   12   11   13   12   11   10   12   11   10    9   11   10    9    8   10    9    8    7    9    8    7    6    8    7    6    5    7    6    5    4    6    5    4    3    5    4    3    2    4    3    2    1    3    2    1    0    4    3    2    1  
 14   15   16   17   13   14   15   16   12   13   14   15   11   12   13   14   10   11   12   13    9   10   11   12    8    9   10   11    7    8    9   10    6    7    8    9    5    6    7    8    4    5    6    7    3    4    5    6    2    3    4    5    1    2    3    4    0    1    2    3  
 15   14   15   16   14   13   14   15   13   12   13   14   12   11   12   13   11   10   11   12   10    9   10   11    9    8    9   10    8    7    8    9    7    6    7    8    6    5    6    7    5    4    5    6    4    3    4    5    3    2    3    4    2    1    2    3    1    0    1    2  
 16   15   14   15   15   14   13   14   14   13   12   13   13   12   11   12   12   11   10   11   11   10    9   10   10    9    8    9    9    8    7    8    8    7    6    7    7    6    5    6    6    5    4    5    5    4    3    4    4    3    2    3    3    2    1    2    2    1    0    1  
 17   16   15   14   16   15   14   13   15   14   13   12   14   13   12   11   13   12   11   10   12   11   10    9   11   10    9    8   10    9    8    7    9    8    7    6    8    7    6    5    7    6    5    4    6    5    4    3    5    4    3    2    4    3    2    1    3    2    1    0  

  0    3    0    0    1    0    0    0   23   87    1   11    0    0   31    0    0    5    0    2   97    0    0    2    0    9   38   45   52    1   96   42    0    0    0    0    0    3    6   15    0    0    0   32    0   64    0   21    2    0    0    0   13    1    9    0    0    1   19    0  
  2    0    0    0    0    0    0   47    0   59    0    5    0    0    0    0    0   26    0    3    0    0    0   74    0    2    0    0    0    0   30    1    0    0    0    0    0   12    0    0    0   10    0    0    0    0    0    0   18    0   52    0    1   85   51    0    0   80    4    3  
  0    0    0    0    6    0    0   76    0    0    0    0   89    0    1    0    0    0    0    0    0   59    1    0   96    0    7    0   85   64    0    0    0    0   11    0   47    0    0    0    1    0    0    0    1    0    0    0    0    0    0    0    0    0    0    0   34    0    0    0  
  0    0    0    0    0    0   55    0    0    0    4    0    1   84    0   84    0    0   95    0    0    0    0    0    0    0    0    0    0    0    0    0   39   43    0    0   41    0    0    0    0    0   16   19    0   12    0    0    0   14    0    0    0    0    0   38   10    0    0    0  
  0    0   32    0    0    0    0    0    2    0    0    0    0    0   18    0    0    0    0    0   45    0    2    0   74    0   51    3   40    0    0   47    0    0    1    0    0    0    0    1   15    0    0    0   19    0    0    0    0    0    0    0    0    0    0    0    0    0    0    0  
  0   53    0    0    0    0    0   84    0    1    0    0    0    0    0    0   48    0    7    4    0    0    0    0    0    0    0    0    0    0    0    0   10    6    0   10    0    0    0    0    0   30    0    0    0   25   37    0    0   21   15   14    1    0    0    0    1   59    0   28  
  0    0    0   40    0    0    0    0    0    0    0    0    0    1    0    2    0    0    0    0    0    0    0    2    0    0    0    0    0    0    0    0    0    0    0    0    6    0    0    0    0    0   13    0    8    0    0    0    0    0    0    0    0    0    0    4    0    0    0    0  
  0   11    0    0    0    5    0    0    0   58    0    0    0    0    0    0    2    0   53    1    0    0    0   48    0    0    0    0    0    0    0    0    1   32    0   17    0    4    0    0    0   11    0    0    0    2   13    0    0   54    1    5    8    0    1    0   75   10    0   11  
 76    0    0    0   55    0    0    0    0    0    0   45   11    0    1    0    0    0    0    0   16   76    0    0    1    0   71    2    1    0   52    2    0    0    0    0    0    0    1   28    0    0    0    0    0    0    0    0   75    0    0    0   26    0    0    0    0    0    0    0  
 21    7    0    0    0    9    0   30    0    0    0    0    0    0    0    0    0    1    0   23    0    0    0   55    0    8    0    0    0    0   92    0    0    0    0   57    0    1    0    0    0   41    0    0    0    0    0    0    2    0   14    0   75   89    0    0    0   17   95    3  
 11    0    0   54    0    0    0    0    0    0    0    0   22   14    1    2    0    0    1   24    0    0    0    1    0   33    0    0   53   99    0    0    0    0   66    0    5    0    0    0    1   36    2   19    8   79    0    2    1    4    0    0    0    0    1   73   96    0    0    0  
 46   52    0    0    0    0    0    0    1    0    0    0    0    0    0    0    0   33    0    0   39    0    0   67    0   26    0    6    0    0    5  100    0   30    0    0    0   91   24   11    0    0    0    0    0    0    0    0   57    0    0    0    0    1    0    0    1    6    1    0  
  0    0    1    9    0    0    0    0    0    0    4    0    0    9   14    1    0    0    0    0    0   28    0    0    2    0    0    0   37    1    0    0    0    0   36   13   70    0    0    0    1    0    9    2    8   15    0    9    0    0    0    0    0    0   21    2    0    0    0    0  
  0    0    0   28    0    0   14    0    0    0   14    0   11    0    0    1    0    0    0    0   71    0    0    0    0    0    0    0    0    1    0    0    0    0    0    0    9    0   42    0    0    0    5    0    0    0    0    0    0    0    0    0    0    0    0    7    0    0    0    0  
  1    0   79    0   76    0    0    0    1    0    7    0   17    0    0    0    0    0    0    0    3    1   12    0   49    0    2   52   29    3    0    1    0    0   47    0    0    0    0   97    6    0    0   43    1    0    0   62    7    0    0    1    0    0   18    0    0    0    0    0  
  0    0    0   41    0    0    2    0    0    0    1    0   94   77    0    0    0    0    4    0    0    0    0    0    0    0    0    0    0   20    0    0   24    0    0    0   28    0    0    0    0    0   26   92    0   85    0   44   58   85    0    0    0    0    2   58   14    1    0    0  
 92    0    0    0    0   22    0   13    0    0    0    0    0    0    0    0    0    0   86    5    0    0    0    0    0    0    0    0    0    0    0    0    5   24    0   41    0    0    0    0    0   39    0    0    0    7    3    0    0   32   32   30   13    0    0    0   33    0    0   87  
  2   17    0    0   21    0   24    0    0    4    0   15    0    5    0    0    0    0    0   43    0    0    0   21   98    5    0    0   30    0   31    0    0    0    0    0    4   99    0    0    0   39    0    0    0    1    0    0   80    0   26    0    1   23    0    0    0   26   10   28  
  0    0    0    1    0    8    0   99    0    0    8    1    0    0    0   16   68    0    0    2    0    0    0    0    0    0    0    0    0    0    0    0    9   12    0    1    0    1    0    0    0    0   17    1    0   72   27    1    0   46    0   56   15    0   78   61   76    0    0    0  
 13   27    0    0    0    3    0   68    0    4   32    0    0    0    0    0   46   54   27    0    0    0    0   42    0    1    0    0    0    0    0    0    0   68    0    1    0    0    0    0    0   45    0    4   56   55   11   31   48   94   11   49   94    0   86    0   48   88   73   15  
 99    0    2    0   41    0    0    0   17    0    0    2    0    0    1    0    0    0    0    0    0    0    0   62    0    3   15   63    0    0   16    1    0    0    0    0    0    1    6    1    0    0    0    0    0    0    0    0   10    0    0    0    0    1    0    0    0    0    1    0  
  0    0   76    0    0    0    0    0    0    0    0    0    1    0    1    0    0    0    0    0    0    0   23    0   22    1    0    0    1    8    0    0    0    0   52    0   52    0    0    0   55    0    0    0   49    0    0   20    0    0    0    0    0    0    0    0    0    0    0    0  
  0    0    2    0   99    0    0    0    0    0    0    0    0    0   20    0    0    0    0    0    0   22    0    0    1    0    1    0    7    0    0    0    0    0    1    0    0    0    0    0   73    0    0    0   24    0    0    0    0    0    0    0    0    0    0    0    0    0    0    0  
  8   55    0    0    0   20    0    4    0    8    6   77    0    0    1    0    1   26    0   17   82    0    0    0    0   32    0    1    0    0    6    0    0    0    0    0    0    5    2   24    0   75    0    1    0   26    0   39    3    0    0   20   79   71    3    0    0    8    4    3  
  0    0    1    0    1    0    0    0    6    0   85    0    3    0   60    0    0   12    0    0    0    5   93    0    0    0    1   71   64   84    0   30    0    0    1    0    0    0    0    2   33    0    0    0   19   18    0    0   80    0    0    0    0    0    0    0    0    0    0    0  
 42    6    0    0    0    0    0    0    0    1   20    3    0    0    0    0    0   40    0   18    9    0    0   13    0    0    0   20    0    0   10    1    0    0    0    0    0   23   22   11    0    0    0   26    0    1    0    2    1    0    0    0    1   82    1    0    0    4    3   77  
 30    0    1    0   49    0    0    0   75    0    0    0    0    0   99    0    0   39    0    0    8    0   81    0    9    0    0    7   93    0    0    3    0    0   41   25    1    0    1   31    1    0    0   30    0    0    0    0   24    0    0    0    0    0    0    0    0   65    0    0  
  1    0    0    0   19    0    0    0   13    0    0    1    0    0   38    0    0    0    0    0   22   85    0   33    8   21    2    0    6   86   33    4    0    0    0    0    0    0    1    1    1    0    0    0    0    0    0    2   66    0    0    0    0    0    0    8    0    0    0    0  
 70    0   51    0   22    0    0    0    5    0   39    0    9    0    4    0    0    0    0    0    0   96    7    0   97    0    3    3    0   32    0   89    0    0   58    0   37    0    0   17    3    0    1    4   10    0    0   48   13    1    0    0    0    0   24    0    0    0    0    0  
 41    0    1    0    0    0    0    0    0   22   25    0   81    1    1   17    0    0    0    0    0    1    0    0    1    0    0   40    1    0    0    3    0    1   52    0   28   16    0    0   56    0   24    4    3    1    0   80    0    0    0    0    0    0    2   28    0    0    0    0  
 15   75    0    0    0    0    0    0   45   31    0    7    0    0    0    0    0   10    0    0   97    0    0    3    0    7    0   13    0    0    0    3    0    0    0    0    0    1    1    1    0    0    0    0    0    1    0    0   56    0    0    0    9   11    0    0    0   67    1    0  
 15    0    0    0    2    0    0    0    4    0    0   77    0    0   69    0    0    0    0    0    1    0    0    0   14    2   91    1   21    1    8    0    0    0    0    0    0    0   73    2    1    0    0    0    0    0    0   14    1    0    0    0    0    0    0    0    0    0    0    0  
  0    0    0    1    1    1    0    9    0    0    0    0    1    0    0   62   89    0    3    0    0    0    0    0    0    0    0    0    0    0    0    0    0   13    0   11    0    0    0    0    0    0    0    0    0    3    1    0    0   65    0   45    0    0    0   29   78    0    0    0  
  0    0    0    0    0   17    0    1    0    0    0    0    0    0    0    0    9    0   56    3    0    0    0    0    0    0    0    0    0    0    0    0   75    0    0    1    0    0    0    0    0   37   19    0    0   10    1    0    0   50    1    1   32    0   65   46   38   79    0   89  
  0    0   47    0    6    0    0    0    0    0    0    0   46    0   20    0   69    0    0    2    0   23   97    0    6    0   15    0   89   15    0    0    0    0    0    0    1    0    0    0   15    0    0    0   29    0    0    0    0    0    0    0    0    0    0    0    0    0    0    0  
  0    8    0    0    0   25    0    3    0   88    0    0    0    0   88    0   13    0    1    1    0    0   39    0    0    0    0    0    0    0    0    0   68    2    7    0    0    0    0    0    0   63    0    0    0   44   18    0    0    5   10    1   70   55    0    0    1    1    0   70  
  0   29   96    2    0    0    3    0    0    0   68    0   38    1    0    1    0    0   24    0    0   23    0    0    0    0    0    0    5    3    0    0    0    0   32    0    0    0    0    0   11    0    6   19    2    0   96    1    0    0    0    0    0    0    0   13    0    0    0   99  
 12    4    0    0   66    0    0    0    0    6    0   37    0    0    0    0    0    3    0    0   56    0    0   39    1    7    0    0    0    0   21    0    0    0    0    0    0    0   12   85    0    0    0    0    0    0    0    0   52    0    0    5    7    2    0    0    0   34   33    0  
 48    0    0    0    0    0    0    0   15   61    0   27    0    0    0    0   14    0    0    0   64    0    0   55    0    1   24   22    0    0   42    1    7    0    0    0    0   26    0   39    0    0    0    0    0    0    0    0    3    0    0    0    0   72    0    0    0    0   16    0  
  2    0    0    0   63    0    0    0    1    0    0    4    0    0   95    0    0    0    0    0    2    0    0   53   76   24    8   65   13   77   11    8    0    0    0    0    0   54   25    0    0    0    0    0    0    0   37   31   23    0    0    0    0   55    0    0    0    1    0    1  
  0    0   21    0   62    0    0    0    0    0   51    0    1    0    1   12    0   32    0    0    0   13    3    0    5    0   66   13   96    2    0   80    0    0    2    0    1    0    0    0    0    0    0    8   35    0    0    2    0    0    0    0    0    0    0    0    0    0    0    0  
  0   88    0    0    0   40    0    3    0   74   17    0    0    0    0    0   33   30    0    3    0    0    0    9    0    0    0    0    0    0    0    0    0   11    0   56    0    0    0    0    0    0    0    0    0    0   62    1    0    0   45   60    7    0    0    0    0    1    0    1  
  0    0    0   51    0    0    3    0    7    0    1    0    4    3    0   97    0    0    5    0    0    0    0    0    0   24    0    0    0   54    0    0    0    0    0    0    2    0    0    0    8    0    0    3    0    0    0    0    0    0    0    0    0    0    0   13    1    0    0    0  
 84    0    0   71    0    0    0    0    0    0   70    0    3    0    2   66    0    0    3    4    0    0    0   36   38   45    0    0   18   86    0    0    1    0    3    0   57    0   15    0    5    0    2    0   58    5    0   11    1   14    0    0    1    0    4    4   44    1    0    0  
  0    0    1    0   72    0    0    0    0    0   30   31   16    0   97    0    0    0    0    0    0   14   74    0   17    0    0    0    1   47    0    0    0    0    1    0    2    0    0    4    1    0    0   83    0    0    0   33    0    0    0    0    0    0    0    0    0    0    0    0  
 54    0    0   11    0   64    0   38    0    0   41    0    4    0    0   20   59    0   47   56    0    0   57   22    0   69    0    0    0   46    0    0    1   26    0    1    0    0    0    0    0    0    0    5    0    0   49   78    0   35    0   23   79    0    8   19   12    1    0   36  
  0    7    0    0    0    4    0   57    0    0    0    0    0    0    0    0   93    0   10    9    0    0    0   87    0    0    0    0    0    0    0    0   32   54    0   69    0    0    0    0    0   76    0    0    0    3    0    0    0   53   29    8   14    0   31    0   92    0    0    1  
  1    0    0    0    0    0    0    0    0    0   62    0   43    0    9   12    0    0   37    1    0    4    0    8    0   17    0   44   33   91    0    1    0    6    0    0   11    0    1    3    6    0    0   38    9   39    0    0    1   73    0    0    0    0   86   79    0    0    0    0  
 24    5    0    0    0    0    0    0    1   12   17   14    0    0   72    0    0   54    1    1   22    0    0   93    0   46    1    5   49    0   39   13    0    0    0    0    0    2   76    1    0    0    0    7    0    0    0   14    0    0    0    0   60   89   40    0    0   61    2    0  
  0    0    0   58    0    4    0   52    0    0   18    0    0    0    0   21   54    0   96   68    0    0    0    0    0    0    0    0    0    0    0    0    1    1    0   68    0    0    0    0    0    0    0   34    0   10   52    1   14    0    0   24    2    0    3   34    1    0    0   17  
  0   17   70    0    0    1    0   22    0    7    0    0    0    0    0    0  100    1    0   46    0    0    0    0    0    0    0    0    0   86    0   33    0    1    0   66    0    0    0    0    0    1    0    0    0    0    8    0    0    0    0   59    3    0    0    0    0    9    0    5  
  0    0    0    0    0   83    0   48    0    0    0    0    0    0    0    0    8    0   28   10    0    0    0    0    0    0    0    0    0    0    0    0    3   28    0   69    0    0    0    0    0    3    0    0    0   90    5    0    0   18   55    0   46    0    0    7   33    0    0   23  
 55   47    0    0    0    1    0   23    0   63    0    0    0    0    0    0   34   52    1   67    0    0    0   39    0   29    0    0    0    0   48    0    0   10    0    1    0    4    0    0    0   29   49   19    0   12   97    0   12    2   69    1    0   45    2    0    0   66   27   45  
  7   20    0    0    0    0    0    0    0    5    0   53   32    0    0    0    0    1   75    0   89    0    0    9    0   90    0    0    0    0    5    0    0    8    0    0    0   54   27   44    0    0    0    0    0    0    0    0   96    0    0    0   51    0    0    0    0    5    1    0  
  3    4    0    0    0    0    0   50    0    0    3    0   16    0   47   65    0    1    8    5    0    0    0    1    0   63    0    0   75    3    3    0    0    2    0    0    0    0    0    0    0    0    0   17    0   18    1   84    1   14    0    0   41    0    0    2    1    7    0    0  
  0    0    0   14    0    0    1    0    0    0   15    0    1   79    0   72    0    0    2    0    0    0    0    0   40    0    0    0    0    2    0    0   32    0    0    0    4    0   82    0    0   69   44   66    0   28    0   91    0    7    0    1    0    0    1    0   71    0    0    0  
  0    0    5   15    0   39    0    2    0    0   42    0    0    0    0   48   45    0   65    0    0   11    0    0    0    0    0   36    0    0    0    0    1   12    0   12    0    0    0    0    0    0   52    3    0   34    4    0    0    5    0   63    0    3   75    7    0    0    0    0  
  1   14    0    0    0    1    0    4    0   35    0    4    0    0    0    0    0    1    0    1    0    0    0   76    0   10    0    0    0    0   15    0    0    0   34   67    0    1    0    0    0    1    0    0    0   51    0    0    3    1   72    0   40    3   19    0    0    0   10    1  
 58   12    0    0    0    0    0    0    0   22    0   54    0    0    0    0    0   60    0   23    3    0    0   51    0    1    0    0    0    0   12    0    0    0    0    0    0   83   53    0    0    0    0    0    0    0    0    0   29    0    0    0   65    1    0    0    0    2    0   18  
  0   53    0    0    0   58    0    2    0   14    0    0    0    0    0    0   37   55    0    1    0    0    0   43    0   56    0    0    0    0    0    0    0    3    0   10    0    0    0    0    0   89    0    0    0   21   77    0    0    1   92   41    6    0    0    0    0   23    3    0  
